xclingo version 2.0b16
Reading from /bin/text2ALM/Master/LogicPrograms/listsA/listsANarrative2.tp.lp /bin/text2ALM/Master/Queries/query2.lp trace-rule.lp
Answer: 1
##Explanation: 1.1
##Total Explanations:	1
Models:	1
